db/inputs/29387795516771124462381798561146719127.smt2
(set-logic QF_FP)
(declare-const x0 (_ FloatingPoint 11 53))
(declare-const x1 (_ FloatingPoint 11 53))
(declare-const x2 (_ FloatingPoint 11 53))
(declare-const x3 (_ FloatingPoint 11 53))
(declare-const x4 (_ FloatingPoint 11 53))
(declare-const x5 (_ FloatingPoint 11 53))
(declare-const x6 (_ FloatingPoint 11 53))
(declare-const x7 (_ FloatingPoint 11 53))
(declare-const x8 (_ FloatingPoint 11 53))
(declare-const x9 (_ FloatingPoint 11 53))
(declare-const x10 (_ FloatingPoint 11 53))
(assert (fp.gt (fp.div RNE (fp.mul RNE x4 x4) (fp.add RNE x0 x7)) (fp.mul RNE (fp.sub RNE x6 x10) (fp.mul RNE x0 x5))))
(assert (fp.leq (fp.div RNE (fp.add RNE x0 x7) (fp.neg x9)) (fp.neg (fp.sub RNE x10 x2))))
(check-sat)
