db/data/29387795516771124462381798561146719127.z3.out
sat
-------------------
183.418702215
